INPUT FILE for pw2wannier90.x (from QEspresso)

&inputpp
   outdir = './'
   prefix = 'sno'
   seedname = 'sno'
   write_mmn = .true.
   write_amn = .true.
   write_unk = .true.
/
